# created by fftool

units real
boundary p p p

atom_style full
bond_style harmonic
angle_style harmonic
dihedral_style opls

special_bonds lj/coul 0.0 0.0 0.5

pair_style hybrid lj/cut/coul/long 12.0 12.0
pair_modify tail yes
kspace_style pppm 1.0e-5

read_data data.lmp

include pair.lmp

# minimize 1.0e-4 1.0e-6 100 1000
# reset_timestep 0

fix SHAKE all shake 0.0001 20 0 b 2 5

neighbor 2.0 bin
# neigh_modify delay 0 every 1 check yes

timestep 1.0

variable TK equal 300.0
variable PBAR equal 1.0

velocity all create ${TK} 12345

fix TPSTAT all npt temp ${TK} ${TK} 100 iso ${PBAR} ${PBAR} 1000

thermo_style custom step cpu etotal ke pe evdwl ecoul elong temp press vol density
thermo 1000

dump TRAJ all custom 1000 dump.lammpstrj id mol type element q x y z ix iy iz
dump_modify TRAJ element N C H C C H O H Cl C O H H

variable t equal time
compute MSD all msd com yes
variable msd equal c_MSD[4]
fix PRMSD all print 2000 "${t} ${msd}" file msd.lammps screen no

variable vinst equal vol
fix VAVG all ave/time 10 1000 50000 v_vinst

# restart 10000 restart1.lmp restart2.lmp

run 50000

variable lscale equal (f_VAVG/v_vinst)^(1.0/3.0)
print "scaling coordinates by ${lscale}"
change_box all x scale ${lscale} y scale ${lscale} z scale ${lscale} remap

unfix VAVG
unfix TPSTAT
fix TSTAT all nvt temp ${TK} ${TK} 100

run 10000

write_data data.eq.lmp
