pair_coeff    1    1 lj/cut/coul/long     0.170000     3.250000  # N4 N4
pair_coeff    1    2 lj/cut/coul/long     0.105924     3.372684  # N4 C1
pair_coeff    1    3 lj/cut/coul/long     0.071414     2.850439  # N4 H1
pair_coeff    1    4 lj/cut/coul/long     0.105924     3.372684  # N4 C1A
pair_coeff    1    5 lj/cut/coul/long     0.105924     3.372684  # N4 COL
pair_coeff    1    6 lj/cut/coul/long     0.071414     2.850439  # N4 HC
pair_coeff    1    7 lj/cut/coul/long     0.170000     3.184337  # N4 OH
pair_coeff    1    8 lj/cut/coul/long     0.000000     0.000000  # N4 HO
pair_coeff    1    9 lj/cut/coul/long     0.183640     3.444198  # N4 Cl
pair_coeff    1   10 lj/cut/coul/long     0.105924     3.372684  # N4 CTO
pair_coeff    1   11 lj/cut/coul/long     0.170000     3.184337  # N4 OHG
pair_coeff    1   12 lj/cut/coul/long     0.071414     2.850439  # N4 H1O
pair_coeff    1   13 lj/cut/coul/long     0.000000     0.000000  # N4 HOG
pair_coeff    2    2 lj/cut/coul/long     0.065999     3.500000  # C1 C1
pair_coeff    2    3 lj/cut/coul/long     0.044497     2.958040  # C1 H1
pair_coeff    2    4 lj/cut/coul/long     0.065999     3.500000  # C1 C1A
pair_coeff    2    5 lj/cut/coul/long     0.065999     3.500000  # C1 COL
pair_coeff    2    6 lj/cut/coul/long     0.044497     2.958040  # C1 HC
pair_coeff    2    7 lj/cut/coul/long     0.105924     3.304542  # C1 OH
pair_coeff    2    8 lj/cut/coul/long     0.000000     0.000000  # C1 HO
pair_coeff    2    9 lj/cut/coul/long     0.114423     3.574213  # C1 Cl
pair_coeff    2   10 lj/cut/coul/long     0.065999     3.500000  # C1 CTO
pair_coeff    2   11 lj/cut/coul/long     0.105924     3.304542  # C1 OHG
pair_coeff    2   12 lj/cut/coul/long     0.044497     2.958040  # C1 H1O
pair_coeff    2   13 lj/cut/coul/long     0.000000     0.000000  # C1 HOG
pair_coeff    3    3 lj/cut/coul/long     0.030000     2.500000  # H1 H1
pair_coeff    3    4 lj/cut/coul/long     0.044497     2.958040  # H1 C1A
pair_coeff    3    5 lj/cut/coul/long     0.044497     2.958040  # H1 COL
pair_coeff    3    6 lj/cut/coul/long     0.030000     2.500000  # H1 HC
pair_coeff    3    7 lj/cut/coul/long     0.071414     2.792848  # H1 OH
pair_coeff    3    8 lj/cut/coul/long     0.000000     0.000000  # H1 HO
pair_coeff    3    9 lj/cut/coul/long     0.077144     3.020761  # H1 Cl
pair_coeff    3   10 lj/cut/coul/long     0.044497     2.958040  # H1 CTO
pair_coeff    3   11 lj/cut/coul/long     0.071414     2.792848  # H1 OHG
pair_coeff    3   12 lj/cut/coul/long     0.030000     2.500000  # H1 H1O
pair_coeff    3   13 lj/cut/coul/long     0.000000     0.000000  # H1 HOG
pair_coeff    4    4 lj/cut/coul/long     0.065999     3.500000  # C1A C1A
pair_coeff    4    5 lj/cut/coul/long     0.065999     3.500000  # C1A COL
pair_coeff    4    6 lj/cut/coul/long     0.044497     2.958040  # C1A HC
pair_coeff    4    7 lj/cut/coul/long     0.105924     3.304542  # C1A OH
pair_coeff    4    8 lj/cut/coul/long     0.000000     0.000000  # C1A HO
pair_coeff    4    9 lj/cut/coul/long     0.114423     3.574213  # C1A Cl
pair_coeff    4   10 lj/cut/coul/long     0.065999     3.500000  # C1A CTO
pair_coeff    4   11 lj/cut/coul/long     0.105924     3.304542  # C1A OHG
pair_coeff    4   12 lj/cut/coul/long     0.044497     2.958040  # C1A H1O
pair_coeff    4   13 lj/cut/coul/long     0.000000     0.000000  # C1A HOG
pair_coeff    5    5 lj/cut/coul/long     0.065999     3.500000  # COL COL
pair_coeff    5    6 lj/cut/coul/long     0.044497     2.958040  # COL HC
pair_coeff    5    7 lj/cut/coul/long     0.105924     3.304542  # COL OH
pair_coeff    5    8 lj/cut/coul/long     0.000000     0.000000  # COL HO
pair_coeff    5    9 lj/cut/coul/long     0.114423     3.574213  # COL Cl
pair_coeff    5   10 lj/cut/coul/long     0.065999     3.500000  # COL CTO
pair_coeff    5   11 lj/cut/coul/long     0.105924     3.304542  # COL OHG
pair_coeff    5   12 lj/cut/coul/long     0.044497     2.958040  # COL H1O
pair_coeff    5   13 lj/cut/coul/long     0.000000     0.000000  # COL HOG
pair_coeff    6    6 lj/cut/coul/long     0.030000     2.500000  # HC HC
pair_coeff    6    7 lj/cut/coul/long     0.071414     2.792848  # HC OH
pair_coeff    6    8 lj/cut/coul/long     0.000000     0.000000  # HC HO
pair_coeff    6    9 lj/cut/coul/long     0.077144     3.020761  # HC Cl
pair_coeff    6   10 lj/cut/coul/long     0.044497     2.958040  # HC CTO
pair_coeff    6   11 lj/cut/coul/long     0.071414     2.792848  # HC OHG
pair_coeff    6   12 lj/cut/coul/long     0.030000     2.500000  # HC H1O
pair_coeff    6   13 lj/cut/coul/long     0.000000     0.000000  # HC HOG
pair_coeff    7    7 lj/cut/coul/long     0.170000     3.120000  # OH OH
pair_coeff    7    8 lj/cut/coul/long     0.000000     0.000000  # OH HO
pair_coeff    7    9 lj/cut/coul/long     0.183640     3.374611  # OH Cl
pair_coeff    7   10 lj/cut/coul/long     0.105924     3.304542  # OH CTO
pair_coeff    7   11 lj/cut/coul/long     0.170000     3.120000  # OH OHG
pair_coeff    7   12 lj/cut/coul/long     0.071414     2.792848  # OH H1O
pair_coeff    7   13 lj/cut/coul/long     0.000000     0.000000  # OH HOG
pair_coeff    8    8 lj/cut/coul/long     0.000000     0.000000  # HO HO
pair_coeff    8    9 lj/cut/coul/long     0.000000     0.000000  # HO Cl
pair_coeff    8   10 lj/cut/coul/long     0.000000     0.000000  # HO CTO
pair_coeff    8   11 lj/cut/coul/long     0.000000     0.000000  # HO OHG
pair_coeff    8   12 lj/cut/coul/long     0.000000     0.000000  # HO H1O
pair_coeff    8   13 lj/cut/coul/long     0.000000     0.000000  # HO HOG
pair_coeff    9    9 lj/cut/coul/long     0.198375     3.650000  # Cl Cl
pair_coeff    9   10 lj/cut/coul/long     0.114423     3.574213  # Cl CTO
pair_coeff    9   11 lj/cut/coul/long     0.183640     3.374611  # Cl OHG
pair_coeff    9   12 lj/cut/coul/long     0.077144     3.020761  # Cl H1O
pair_coeff    9   13 lj/cut/coul/long     0.000000     0.000000  # Cl HOG
pair_coeff   10   10 lj/cut/coul/long     0.065999     3.500000  # CTO CTO
pair_coeff   10   11 lj/cut/coul/long     0.105924     3.304542  # CTO OHG
pair_coeff   10   12 lj/cut/coul/long     0.044497     2.958040  # CTO H1O
pair_coeff   10   13 lj/cut/coul/long     0.000000     0.000000  # CTO HOG
pair_coeff   11   11 lj/cut/coul/long     0.170000     3.120000  # OHG OHG
pair_coeff   11   12 lj/cut/coul/long     0.071414     2.792848  # OHG H1O
pair_coeff   11   13 lj/cut/coul/long     0.000000     0.000000  # OHG HOG
pair_coeff   12   12 lj/cut/coul/long     0.030000     2.500000  # H1O H1O
pair_coeff   12   13 lj/cut/coul/long     0.000000     0.000000  # H1O HOG
pair_coeff   13   13 lj/cut/coul/long     0.000000     0.000000  # HOG HOG
