pair_coeff    1    1 lj/cut/coul/long     0.170000     3.201250  # N4 N4 *
pair_coeff    1    2 lj/cut/coul/long     0.105924     3.322094  # N4 C1 *
pair_coeff    1    3 lj/cut/coul/long     0.071414     2.807682  # N4 H1 *
pair_coeff    1    4 lj/cut/coul/long     0.105924     3.322094  # N4 C1A *
pair_coeff    1    5 lj/cut/coul/long     0.105924     3.322094  # N4 COL *
pair_coeff    1    6 lj/cut/coul/long     0.071414     2.807682  # N4 HC *
pair_coeff    1    7 lj/cut/coul/long     0.170000     3.136572  # N4 OH *
pair_coeff    1    8 lj/cut/coul/long     0.000000     0.000000  # N4 HO *
pair_coeff    1    9 lj/cut/coul/long     0.068125     3.732101  # N4 Cl ~ *
pair_coeff    1   10 lj/cut/coul/long     0.069391     3.322094  # N4 CTO ~ *
pair_coeff    1   11 lj/cut/coul/long     0.111368     3.136572  # N4 OHG ~ *
pair_coeff    1   12 lj/cut/coul/long     0.046784     2.807682  # N4 H1O ~ *
pair_coeff    1   13 lj/cut/coul/long     0.000000     0.000000  # N4 HOG ~ *
pair_coeff    2    2 lj/cut/coul/long     0.065999     3.447500  # C1 C1 *
pair_coeff    2    3 lj/cut/coul/long     0.044497     2.913669  # C1 H1 *
pair_coeff    2    4 lj/cut/coul/long     0.065999     3.447500  # C1 C1A *
pair_coeff    2    5 lj/cut/coul/long     0.065999     3.447500  # C1 COL *
pair_coeff    2    6 lj/cut/coul/long     0.044497     2.913669  # C1 HC *
pair_coeff    2    7 lj/cut/coul/long     0.105924     3.254974  # C1 OH *
pair_coeff    2    8 lj/cut/coul/long     0.000000     0.000000  # C1 HO *
pair_coeff    2    9 lj/cut/coul/long     0.042447     3.872985  # C1 Cl ~ *
pair_coeff    2   10 lj/cut/coul/long     0.043236     3.447500  # C1 CTO ~ *
pair_coeff    2   11 lj/cut/coul/long     0.069391     3.254974  # C1 OHG ~ *
pair_coeff    2   12 lj/cut/coul/long     0.029150     2.913669  # C1 H1O ~ *
pair_coeff    2   13 lj/cut/coul/long     0.000000     0.000000  # C1 HOG ~ *
pair_coeff    3    3 lj/cut/coul/long     0.030000     2.462500  # H1 H1 *
pair_coeff    3    4 lj/cut/coul/long     0.044497     2.913669  # H1 C1A *
pair_coeff    3    5 lj/cut/coul/long     0.044497     2.913669  # H1 COL *
pair_coeff    3    6 lj/cut/coul/long     0.030000     2.462500  # H1 HC *
pair_coeff    3    7 lj/cut/coul/long     0.071414     2.750955  # H1 OH *
pair_coeff    3    8 lj/cut/coul/long     0.000000     0.000000  # H1 HO *
pair_coeff    3    9 lj/cut/coul/long     0.028618     3.273269  # H1 Cl ~ *
pair_coeff    3   10 lj/cut/coul/long     0.029150     2.913669  # H1 CTO ~ *
pair_coeff    3   11 lj/cut/coul/long     0.046784     2.750955  # H1 OHG ~ *
pair_coeff    3   12 lj/cut/coul/long     0.019653     2.462500  # H1 H1O ~ *
pair_coeff    3   13 lj/cut/coul/long     0.000000     0.000000  # H1 HOG ~ *
pair_coeff    4    4 lj/cut/coul/long     0.065999     3.447500  # C1A C1A *
pair_coeff    4    5 lj/cut/coul/long     0.065999     3.447500  # C1A COL *
pair_coeff    4    6 lj/cut/coul/long     0.044497     2.913669  # C1A HC *
pair_coeff    4    7 lj/cut/coul/long     0.105924     3.254974  # C1A OH *
pair_coeff    4    8 lj/cut/coul/long     0.000000     0.000000  # C1A HO *
pair_coeff    4    9 lj/cut/coul/long     0.042447     3.872985  # C1A Cl ~ *
pair_coeff    4   10 lj/cut/coul/long     0.043236     3.447500  # C1A CTO ~ *
pair_coeff    4   11 lj/cut/coul/long     0.069391     3.254974  # C1A OHG ~ *
pair_coeff    4   12 lj/cut/coul/long     0.029150     2.913669  # C1A H1O ~ *
pair_coeff    4   13 lj/cut/coul/long     0.000000     0.000000  # C1A HOG ~ *
pair_coeff    5    5 lj/cut/coul/long     0.065999     3.447500  # COL COL *
pair_coeff    5    6 lj/cut/coul/long     0.044497     2.913669  # COL HC *
pair_coeff    5    7 lj/cut/coul/long     0.105924     3.254974  # COL OH *
pair_coeff    5    8 lj/cut/coul/long     0.000000     0.000000  # COL HO *
pair_coeff    5    9 lj/cut/coul/long     0.042447     3.872985  # COL Cl ~ *
pair_coeff    5   10 lj/cut/coul/long     0.043236     3.447500  # COL CTO ~ *
pair_coeff    5   11 lj/cut/coul/long     0.069391     3.254974  # COL OHG ~ *
pair_coeff    5   12 lj/cut/coul/long     0.029150     2.913669  # COL H1O ~ *
pair_coeff    5   13 lj/cut/coul/long     0.000000     0.000000  # COL HOG ~ *
pair_coeff    6    6 lj/cut/coul/long     0.030000     2.462500  # HC HC *
pair_coeff    6    7 lj/cut/coul/long     0.071414     2.750955  # HC OH *
pair_coeff    6    8 lj/cut/coul/long     0.000000     0.000000  # HC HO *
pair_coeff    6    9 lj/cut/coul/long     0.028618     3.273269  # HC Cl ~ *
pair_coeff    6   10 lj/cut/coul/long     0.029150     2.913669  # HC CTO ~ *
pair_coeff    6   11 lj/cut/coul/long     0.046784     2.750955  # HC OHG ~ *
pair_coeff    6   12 lj/cut/coul/long     0.019653     2.462500  # HC H1O ~ *
pair_coeff    6   13 lj/cut/coul/long     0.000000     0.000000  # HC HOG ~ *
pair_coeff    7    7 lj/cut/coul/long     0.170000     3.073200  # OH OH *
pair_coeff    7    8 lj/cut/coul/long     0.000000     0.000000  # OH HO *
pair_coeff    7    9 lj/cut/coul/long     0.068125     3.656697  # OH Cl ~ *
pair_coeff    7   10 lj/cut/coul/long     0.069391     3.254974  # OH CTO ~ *
pair_coeff    7   11 lj/cut/coul/long     0.111368     3.073200  # OH OHG ~ *
pair_coeff    7   12 lj/cut/coul/long     0.046784     2.750955  # OH H1O ~ *
pair_coeff    7   13 lj/cut/coul/long     0.000000     0.000000  # OH HOG ~ *
pair_coeff    8    8 lj/cut/coul/long     0.000000     0.000000  # HO HO *
pair_coeff    8    9 lj/cut/coul/long     0.000000     0.000000  # HO Cl ~ *
pair_coeff    8   10 lj/cut/coul/long     0.000000     0.000000  # HO CTO ~ *
pair_coeff    8   11 lj/cut/coul/long     0.000000     0.000000  # HO OHG ~ *
pair_coeff    8   12 lj/cut/coul/long     0.000000     0.000000  # HO H1O ~ *
pair_coeff    8   13 lj/cut/coul/long     0.000000     0.000000  # HO HOG ~ *
pair_coeff    9    9 lj/cut/coul/long     0.117790     4.350981  # Cl Cl *
pair_coeff    9   10 lj/cut/coul/long     0.053228     3.872985  # Cl CTO ~ *
pair_coeff    9   11 lj/cut/coul/long     0.085428     3.656697  # Cl OHG ~ *
pair_coeff    9   12 lj/cut/coul/long     0.035887     3.273269  # Cl H1O ~ *
pair_coeff    9   13 lj/cut/coul/long     0.000000     0.000000  # Cl HOG ~ *
pair_coeff   10   10 lj/cut/coul/long     0.057289     3.447500  # CTO CTO ~ *
pair_coeff   10   11 lj/cut/coul/long     0.091945     3.254974  # CTO OHG ~ *
pair_coeff   10   12 lj/cut/coul/long     0.038625     2.913669  # CTO H1O ~ *
pair_coeff   10   13 lj/cut/coul/long     0.000000     0.000000  # CTO HOG ~ *
pair_coeff   11   11 lj/cut/coul/long     0.147565     3.073200  # OHG OHG ~ *
pair_coeff   11   12 lj/cut/coul/long     0.061990     2.750955  # OHG H1O ~ *
pair_coeff   11   13 lj/cut/coul/long     0.000000     0.000000  # OHG HOG ~ *
pair_coeff   12   12 lj/cut/coul/long     0.026041     2.462500  # H1O H1O ~ *
pair_coeff   12   13 lj/cut/coul/long     0.000000     0.000000  # H1O HOG ~ *
pair_coeff   13   13 lj/cut/coul/long     0.000000     0.000000  # HOG HOG ~ *
