# interactions involving Drude particles
pair_coeff    *  14* coul/long/cs
# Thole damping if more than 1 Drude per molecule
pair_coeff    1    1 thole   1.208
pair_coeff    1    2 thole   1.549
pair_coeff    1    4 thole   1.417
pair_coeff    1    5 thole   1.417
pair_coeff    1    7 thole   1.331
pair_coeff    1    9 thole   2.305
pair_coeff    1   10 thole   1.417
pair_coeff    1   11 thole   1.331
pair_coeff    1   14 thole   1.208
pair_coeff    1   15 thole   1.549
pair_coeff    1   16 thole   1.417
pair_coeff    1   17 thole   1.417
pair_coeff    1   18 thole   1.331
pair_coeff    1   19 thole   2.305
pair_coeff    1   20 thole   1.417
pair_coeff    1   21 thole   1.331
pair_coeff    2    2 thole   1.985
pair_coeff    2    4 thole   1.816
pair_coeff    2    5 thole   1.816
pair_coeff    2    7 thole   1.706
pair_coeff    2    9 thole   2.955
pair_coeff    2   10 thole   1.816
pair_coeff    2   11 thole   1.706
pair_coeff    2   14 thole   1.549
pair_coeff    2   15 thole   1.985
pair_coeff    2   16 thole   1.816
pair_coeff    2   17 thole   1.816
pair_coeff    2   18 thole   1.706
pair_coeff    2   19 thole   2.955
pair_coeff    2   20 thole   1.816
pair_coeff    2   21 thole   1.706
pair_coeff    4    4 thole   1.662
pair_coeff    4    5 thole   1.662
pair_coeff    4    7 thole   1.561
pair_coeff    4    9 thole   2.704
pair_coeff    4   10 thole   1.662
pair_coeff    4   11 thole   1.561
pair_coeff    4   14 thole   1.417
pair_coeff    4   15 thole   1.816
pair_coeff    4   16 thole   1.662
pair_coeff    4   17 thole   1.662
pair_coeff    4   18 thole   1.561
pair_coeff    4   19 thole   2.704
pair_coeff    4   20 thole   1.662
pair_coeff    4   21 thole   1.561
pair_coeff    5    5 thole   1.662
pair_coeff    5    7 thole   1.561
pair_coeff    5    9 thole   2.704
pair_coeff    5   10 thole   1.662
pair_coeff    5   11 thole   1.561
pair_coeff    5   14 thole   1.417
pair_coeff    5   15 thole   1.816
pair_coeff    5   16 thole   1.662
pair_coeff    5   17 thole   1.662
pair_coeff    5   18 thole   1.561
pair_coeff    5   19 thole   2.704
pair_coeff    5   20 thole   1.662
pair_coeff    5   21 thole   1.561
pair_coeff    7    7 thole   1.467
pair_coeff    7    9 thole   2.541
pair_coeff    7   10 thole   1.561
pair_coeff    7   11 thole   1.467
pair_coeff    7   14 thole   1.331
pair_coeff    7   15 thole   1.706
pair_coeff    7   16 thole   1.561
pair_coeff    7   17 thole   1.561
pair_coeff    7   18 thole   1.467
pair_coeff    7   19 thole   2.541
pair_coeff    7   20 thole   1.561
pair_coeff    7   21 thole   1.467
pair_coeff    9    9 thole   4.400
pair_coeff    9   10 thole   2.704
pair_coeff    9   11 thole   2.541
pair_coeff    9   14 thole   2.305
pair_coeff    9   15 thole   2.955
pair_coeff    9   16 thole   2.704
pair_coeff    9   17 thole   2.704
pair_coeff    9   18 thole   2.541
pair_coeff    9   19 thole   4.400
pair_coeff    9   20 thole   2.704
pair_coeff    9   21 thole   2.541
pair_coeff   10   10 thole   1.662
pair_coeff   10   11 thole   1.561
pair_coeff   10   14 thole   1.417
pair_coeff   10   15 thole   1.816
pair_coeff   10   16 thole   1.662
pair_coeff   10   17 thole   1.662
pair_coeff   10   18 thole   1.561
pair_coeff   10   19 thole   2.704
pair_coeff   10   20 thole   1.662
pair_coeff   10   21 thole   1.561
pair_coeff   11   11 thole   1.467
pair_coeff   11   14 thole   1.331
pair_coeff   11   15 thole   1.706
pair_coeff   11   16 thole   1.561
pair_coeff   11   17 thole   1.561
pair_coeff   11   18 thole   1.467
pair_coeff   11   19 thole   2.541
pair_coeff   11   20 thole   1.561
pair_coeff   11   21 thole   1.467
pair_coeff   14   14 thole   1.208
pair_coeff   14   15 thole   1.549
pair_coeff   14   16 thole   1.417
pair_coeff   14   17 thole   1.417
pair_coeff   14   18 thole   1.331
pair_coeff   14   19 thole   2.305
pair_coeff   14   20 thole   1.417
pair_coeff   14   21 thole   1.331
pair_coeff   15   15 thole   1.985
pair_coeff   15   16 thole   1.816
pair_coeff   15   17 thole   1.816
pair_coeff   15   18 thole   1.706
pair_coeff   15   19 thole   2.955
pair_coeff   15   20 thole   1.816
pair_coeff   15   21 thole   1.706
pair_coeff   16   16 thole   1.662
pair_coeff   16   17 thole   1.662
pair_coeff   16   18 thole   1.561
pair_coeff   16   19 thole   2.704
pair_coeff   16   20 thole   1.662
pair_coeff   16   21 thole   1.561
pair_coeff   17   17 thole   1.662
pair_coeff   17   18 thole   1.561
pair_coeff   17   19 thole   2.704
pair_coeff   17   20 thole   1.662
pair_coeff   17   21 thole   1.561
pair_coeff   18   18 thole   1.467
pair_coeff   18   19 thole   2.541
pair_coeff   18   20 thole   1.561
pair_coeff   18   21 thole   1.467
pair_coeff   19   19 thole   4.400
pair_coeff   19   20 thole   2.704
pair_coeff   19   21 thole   2.541
pair_coeff   20   20 thole   1.662
pair_coeff   20   21 thole   1.561
pair_coeff   21   21 thole   1.467
