pair_coeff    1    1 lj/cut/coul/long     0.170000     3.250000  # N4 N4
pair_coeff    1    2 lj/cut/coul/long     0.105924     3.372684  # N4 C1
pair_coeff    1    3 lj/cut/coul/long     0.071414     2.850439  # N4 H1
pair_coeff    1    4 lj/cut/coul/long     0.105924     3.372684  # N4 C1A
pair_coeff    1    5 lj/cut/coul/long     0.105924     3.372684  # N4 COL
pair_coeff    1    6 lj/cut/coul/long     0.071414     2.850439  # N4 HC
pair_coeff    1    7 lj/cut/coul/long     0.170000     3.184337  # N4 OH
pair_coeff    1    8 lj/cut/coul/long     0.000000     0.000000  # N4 HO
pair_coeff    1    9 lj/cut/coul/long     0.183640     3.444198  # N4 Cl
pair_coeff    1   10 lj/cut/coul/long     0.105924     3.372684  # N4 CTO
pair_coeff    1   11 lj/cut/coul/long     0.170000     3.184337  # N4 OHG
pair_coeff    1   12 lj/cut/coul/long     0.071414     2.850439  # N4 H1O
pair_coeff    1   13 lj/cut/coul/long     0.000000     0.000000  # N4 HOG
pair_coeff    2    2 lj/cut/coul/long     0.065999     3.500000  # C1 C1
pair_coeff    2    3 lj/cut/coul/long     0.044497     2.958040  # C1 H1
pair_coeff    2    4 lj/cut/coul/long     0.065999     3.500000  # C1 C1A
pair_coeff    2    5 lj/cut/coul/long     0.065999     3.500000  # C1 COL
pair_coeff    2    6 lj/cut/coul/long     0.044497     2.958040  # C1 HC
pair_coeff    2    7 lj/cut/coul/long     0.105924     3.304542  # C1 OH
pair_coeff    2    8 lj/cut/coul/long     0.000000     0.000000  # C1 HO
pair_coeff    2    9 lj/cut/coul/long     0.114423     3.574213  # C1 Cl
pair_coeff    2   10 lj/cut/coul/long     0.065999     3.500000  # C1 CTO
pair_coeff    2   11 lj/cut/coul/long     0.105924     3.304542  # C1 OHG
pair_coeff    2   12 lj/cut/coul/long     0.044497     2.958040  # C1 H1O
pair_coeff    2   13 lj/cut/coul/long     0.000000     0.000000  # C1 HOG
pair_coeff    3    3 lj/cut/coul/long     0.030000     2.500000  # H1 H1
pair_coeff    3    4 lj/cut/coul/long     0.044497     2.958040  # H1 C1A
pair_coeff    3    5 lj/cut/coul/long     0.044497     2.958040  # H1 COL
pair_coeff    3    6 lj/cut/coul/long     0.030000     2.500000  # H1 HC
pair_coeff    3    7 lj/cut/coul/long     0.071414     2.792848  # H1 OH
pair_coeff    3    8 lj/cut/coul/long     0.000000     0.000000  # H1 HO
pair_coeff    3    9 lj/cut/coul/long     0.077144     3.020761  # H1 Cl
pair_coeff    3   10 lj/cut/coul/long     0.044497     2.958040  # H1 CTO
pair_coeff    3   11 lj/cut/coul/long     0.071414     2.792848  # H1 OHG
pair_coeff    3   12 lj/cut/coul/long     0.030000     2.500000  # H1 H1O
pair_coeff    3   13 lj/cut/coul/long     0.000000     0.000000  # H1 HOG
pair_coeff    4    4 lj/cut/coul/long     0.065999     3.500000  # C1A C1A
pair_coeff    4    5 lj/cut/coul/long     0.065999     3.500000  # C1A COL
pair_coeff    4    6 lj/cut/coul/long     0.044497     2.958040  # C1A HC
pair_coeff    4    7 lj/cut/coul/long     0.105924     3.304542  # C1A OH
pair_coeff    4    8 lj/cut/coul/long     0.000000     0.000000  # C1A HO
pair_coeff    4    9 lj/cut/coul/long     0.114423     3.574213  # C1A Cl
pair_coeff    4   10 lj/cut/coul/long     0.065999     3.500000  # C1A CTO
pair_coeff    4   11 lj/cut/coul/long     0.105924     3.304542  # C1A OHG
pair_coeff    4   12 lj/cut/coul/long     0.044497     2.958040  # C1A H1O
pair_coeff    4   13 lj/cut/coul/long     0.000000     0.000000  # C1A HOG
pair_coeff    5    5 lj/cut/coul/long     0.065999     3.500000  # COL COL
pair_coeff    5    6 lj/cut/coul/long     0.044497     2.958040  # COL HC
pair_coeff    5    7 lj/cut/coul/long     0.105924     3.304542  # COL OH
pair_coeff    5    8 lj/cut/coul/long     0.000000     0.000000  # COL HO
pair_coeff    5    9 lj/cut/coul/long     0.114423     3.574213  # COL Cl
pair_coeff    5   10 lj/cut/coul/long     0.065999     3.500000  # COL CTO
pair_coeff    5   11 lj/cut/coul/long     0.105924     3.304542  # COL OHG
pair_coeff    5   12 lj/cut/coul/long     0.044497     2.958040  # COL H1O
pair_coeff    5   13 lj/cut/coul/long     0.000000     0.000000  # COL HOG
pair_coeff    6    6 lj/cut/coul/long     0.030000     2.500000  # HC HC
pair_coeff    6    7 lj/cut/coul/long     0.071414     2.792848  # HC OH
pair_coeff    6    8 lj/cut/coul/long     0.000000     0.000000  # HC HO
pair_coeff    6    9 lj/cut/coul/long     0.077144     3.020761  # HC Cl
pair_coeff    6   10 lj/cut/coul/long     0.044497     2.958040  # HC CTO
pair_coeff    6   11 lj/cut/coul/long     0.071414     2.792848  # HC OHG
pair_coeff    6   12 lj/cut/coul/long     0.030000     2.500000  # HC H1O
pair_coeff    6   13 lj/cut/coul/long     0.000000     0.000000  # HC HOG
pair_coeff    7    7 lj/cut/coul/long     0.170000     3.120000  # OH OH
pair_coeff    7    8 lj/cut/coul/long     0.000000     0.000000  # OH HO
pair_coeff    7    9 lj/cut/coul/long     0.183640     3.374611  # OH Cl
pair_coeff    7   10 lj/cut/coul/long     0.105924     3.304542  # OH CTO
pair_coeff    7   11 lj/cut/coul/long     0.170000     3.120000  # OH OHG
pair_coeff    7   12 lj/cut/coul/long     0.071414     2.792848  # OH H1O
pair_coeff    7   13 lj/cut/coul/long     0.000000     0.000000  # OH HOG
pair_coeff    8    8 lj/cut/coul/long     0.000000     0.000000  # HO HO
pair_coeff    8    9 lj/cut/coul/long     0.000000     0.000000  # HO Cl
pair_coeff    8   10 lj/cut/coul/long     0.000000     0.000000  # HO CTO
pair_coeff    8   11 lj/cut/coul/long     0.000000     0.000000  # HO OHG
pair_coeff    8   12 lj/cut/coul/long     0.000000     0.000000  # HO H1O
pair_coeff    8   13 lj/cut/coul/long     0.000000     0.000000  # HO HOG
pair_coeff    9    9 lj/cut/coul/long     0.198375     3.650000  # Cl Cl
pair_coeff    9   10 lj/cut/coul/long     0.114423     3.574213  # Cl CTO
pair_coeff    9   11 lj/cut/coul/long     0.183640     3.374611  # Cl OHG
pair_coeff    9   12 lj/cut/coul/long     0.077144     3.020761  # Cl H1O
pair_coeff    9   13 lj/cut/coul/long     0.000000     0.000000  # Cl HOG
pair_coeff   10   10 lj/cut/coul/long     0.065999     3.500000  # CTO CTO
pair_coeff   10   11 lj/cut/coul/long     0.105924     3.304542  # CTO OHG
pair_coeff   10   12 lj/cut/coul/long     0.044497     2.958040  # CTO H1O
pair_coeff   10   13 lj/cut/coul/long     0.000000     0.000000  # CTO HOG
pair_coeff   11   11 lj/cut/coul/long     0.170000     3.120000  # OHG OHG
pair_coeff   11   12 lj/cut/coul/long     0.071414     2.792848  # OHG H1O
pair_coeff   11   13 lj/cut/coul/long     0.000000     0.000000  # OHG HOG
pair_coeff   12   12 lj/cut/coul/long     0.030000     2.500000  # H1O H1O
pair_coeff   12   13 lj/cut/coul/long     0.000000     0.000000  # H1O HOG
pair_coeff   13   13 lj/cut/coul/long     0.000000     0.000000  # HOG HOG
pair_coeff    *  14* coul/long/cs
pair_coeff    1    1 thole   1.208
pair_coeff    1    2 thole   1.549
pair_coeff    1    4 thole   1.417
pair_coeff    1    5 thole   1.417
pair_coeff    1    7 thole   1.331
pair_coeff    1    9 thole   2.305
pair_coeff    1   10 thole   1.417
pair_coeff    1   11 thole   1.331
pair_coeff    1   14 thole   1.208
pair_coeff    1   15 thole   1.549
pair_coeff    1   16 thole   1.417
pair_coeff    1   17 thole   1.417
pair_coeff    1   18 thole   1.331
pair_coeff    1   19 thole   2.305
pair_coeff    1   20 thole   1.417
pair_coeff    1   21 thole   1.331
pair_coeff    2    2 thole   1.985
pair_coeff    2    4 thole   1.816
pair_coeff    2    5 thole   1.816
pair_coeff    2    7 thole   1.706
pair_coeff    2    9 thole   2.955
pair_coeff    2   10 thole   1.816
pair_coeff    2   11 thole   1.706
pair_coeff    2   14 thole   1.549
pair_coeff    2   15 thole   1.985
pair_coeff    2   16 thole   1.816
pair_coeff    2   17 thole   1.816
pair_coeff    2   18 thole   1.706
pair_coeff    2   19 thole   2.955
pair_coeff    2   20 thole   1.816
pair_coeff    2   21 thole   1.706
pair_coeff    4    4 thole   1.662
pair_coeff    4    5 thole   1.662
pair_coeff    4    7 thole   1.561
pair_coeff    4    9 thole   2.704
pair_coeff    4   10 thole   1.662
pair_coeff    4   11 thole   1.561
pair_coeff    4   14 thole   1.417
pair_coeff    4   15 thole   1.816
pair_coeff    4   16 thole   1.662
pair_coeff    4   17 thole   1.662
pair_coeff    4   18 thole   1.561
pair_coeff    4   19 thole   2.704
pair_coeff    4   20 thole   1.662
pair_coeff    4   21 thole   1.561
pair_coeff    5    5 thole   1.662
pair_coeff    5    7 thole   1.561
pair_coeff    5    9 thole   2.704
pair_coeff    5   10 thole   1.662
pair_coeff    5   11 thole   1.561
pair_coeff    5   14 thole   1.417
pair_coeff    5   15 thole   1.816
pair_coeff    5   16 thole   1.662
pair_coeff    5   17 thole   1.662
pair_coeff    5   18 thole   1.561
pair_coeff    5   19 thole   2.704
pair_coeff    5   20 thole   1.662
pair_coeff    5   21 thole   1.561
pair_coeff    7    7 thole   1.467
pair_coeff    7    9 thole   2.541
pair_coeff    7   10 thole   1.561
pair_coeff    7   11 thole   1.467
pair_coeff    7   14 thole   1.331
pair_coeff    7   15 thole   1.706
pair_coeff    7   16 thole   1.561
pair_coeff    7   17 thole   1.561
pair_coeff    7   18 thole   1.467
pair_coeff    7   19 thole   2.541
pair_coeff    7   20 thole   1.561
pair_coeff    7   21 thole   1.467
pair_coeff    9    9 thole   4.400
pair_coeff    9   10 thole   2.704
pair_coeff    9   11 thole   2.541
pair_coeff    9   14 thole   2.305
pair_coeff    9   15 thole   2.955
pair_coeff    9   16 thole   2.704
pair_coeff    9   17 thole   2.704
pair_coeff    9   18 thole   2.541
pair_coeff    9   19 thole   4.400
pair_coeff    9   20 thole   2.704
pair_coeff    9   21 thole   2.541
pair_coeff   10   10 thole   1.662
pair_coeff   10   11 thole   1.561
pair_coeff   10   14 thole   1.417
pair_coeff   10   15 thole   1.816
pair_coeff   10   16 thole   1.662
pair_coeff   10   17 thole   1.662
pair_coeff   10   18 thole   1.561
pair_coeff   10   19 thole   2.704
pair_coeff   10   20 thole   1.662
pair_coeff   10   21 thole   1.561
pair_coeff   11   11 thole   1.467
pair_coeff   11   14 thole   1.331
pair_coeff   11   15 thole   1.706
pair_coeff   11   16 thole   1.561
pair_coeff   11   17 thole   1.561
pair_coeff   11   18 thole   1.467
pair_coeff   11   19 thole   2.541
pair_coeff   11   20 thole   1.561
pair_coeff   11   21 thole   1.467
pair_coeff   14   14 thole   1.208
pair_coeff   14   15 thole   1.549
pair_coeff   14   16 thole   1.417
pair_coeff   14   17 thole   1.417
pair_coeff   14   18 thole   1.331
pair_coeff   14   19 thole   2.305
pair_coeff   14   20 thole   1.417
pair_coeff   14   21 thole   1.331
pair_coeff   15   15 thole   1.985
pair_coeff   15   16 thole   1.816
pair_coeff   15   17 thole   1.816
pair_coeff   15   18 thole   1.706
pair_coeff   15   19 thole   2.955
pair_coeff   15   20 thole   1.816
pair_coeff   15   21 thole   1.706
pair_coeff   16   16 thole   1.662
pair_coeff   16   17 thole   1.662
pair_coeff   16   18 thole   1.561
pair_coeff   16   19 thole   2.704
pair_coeff   16   20 thole   1.662
pair_coeff   16   21 thole   1.561
pair_coeff   17   17 thole   1.662
pair_coeff   17   18 thole   1.561
pair_coeff   17   19 thole   2.704
pair_coeff   17   20 thole   1.662
pair_coeff   17   21 thole   1.561
pair_coeff   18   18 thole   1.467
pair_coeff   18   19 thole   2.541
pair_coeff   18   20 thole   1.561
pair_coeff   18   21 thole   1.467
pair_coeff   19   19 thole   4.400
pair_coeff   19   20 thole   2.704
pair_coeff   19   21 thole   2.541
pair_coeff   20   20 thole   1.662
pair_coeff   20   21 thole   1.561
pair_coeff   21   21 thole   1.467
pair_coeff    1    8 coul/tt 4.5 1.0
pair_coeff    2    8 coul/tt 4.5 1.0
pair_coeff    4    8 coul/tt 4.5 1.0
pair_coeff    5    8 coul/tt 4.5 1.0
pair_coeff    7    8 coul/tt 4.5 1.0
pair_coeff    8    9 coul/tt 4.5 1.0
pair_coeff    8   10 coul/tt 4.5 1.0
pair_coeff    8   11 coul/tt 4.5 1.0
pair_coeff    8  14* coul/tt 4.5 1.0
pair_coeff    1   13 coul/tt 4.5 1.0
pair_coeff    2   13 coul/tt 4.5 1.0
pair_coeff    4   13 coul/tt 4.5 1.0
pair_coeff    5   13 coul/tt 4.5 1.0
pair_coeff    7   13 coul/tt 4.5 1.0
pair_coeff    9   13 coul/tt 4.5 1.0
pair_coeff   10   13 coul/tt 4.5 1.0
pair_coeff   11   13 coul/tt 4.5 1.0
pair_coeff   13  14* coul/tt 4.5 1.0
