pair_coeff    1    1 lj/cut/coul/long     0.170000     3.250000  # NA NA
pair_coeff    1    2 lj/cut/coul/long     0.109087     3.396690  # NA CR
pair_coeff    1    3 lj/cut/coul/long     0.109087     3.396690  # NA CW
pair_coeff    1    4 lj/cut/coul/long     0.105924     3.372684  # NA C1
pair_coeff    1    5 lj/cut/coul/long     0.071414     2.804461  # NA HCR
pair_coeff    1    6 lj/cut/coul/long     0.105924     3.372684  # NA C1A
pair_coeff    1    7 lj/cut/coul/long     0.071414     2.804461  # NA HCW
pair_coeff    1    8 lj/cut/coul/long     0.071414     2.850439  # NA H1
pair_coeff    1    9 lj/cut/coul/long     0.105924     3.372684  # NA C2
pair_coeff    1   10 lj/cut/coul/long     0.105924     3.372684  # NA CS
pair_coeff    1   11 lj/cut/coul/long     0.071414     2.850439  # NA HC
pair_coeff    1   12 lj/cut/coul/long     0.105924     3.372684  # NA CT
pair_coeff    1   13 lj/cut/coul/long     0.170000     3.250000  # NA N3A
pair_coeff    1   14 lj/cut/coul/long     0.105924     3.274905  # NA CZA
pair_coeff    1   15 lj/cut/coul/long     0.170000     3.224903  # NA NZA
pair_coeff    2    2 lj/cut/coul/long     0.070000     3.550000  # CR CR
pair_coeff    2    3 lj/cut/coul/long     0.070000     3.550000  # CR CW
pair_coeff    2    4 lj/cut/coul/long     0.067970     3.524911  # CR C1
pair_coeff    2    5 lj/cut/coul/long     0.045826     2.931041  # CR HCR
pair_coeff    2    6 lj/cut/coul/long     0.067970     3.524911  # CR C1A
pair_coeff    2    7 lj/cut/coul/long     0.045826     2.931041  # CR HCW
pair_coeff    2    8 lj/cut/coul/long     0.045826     2.979094  # CR H1
pair_coeff    2    9 lj/cut/coul/long     0.067970     3.524911  # CR C2
pair_coeff    2   10 lj/cut/coul/long     0.067970     3.524911  # CR CS
pair_coeff    2   11 lj/cut/coul/long     0.045826     2.979094  # CR HC
pair_coeff    2   12 lj/cut/coul/long     0.067970     3.524911  # CR CT
pair_coeff    2   13 lj/cut/coul/long     0.109087     3.396690  # CR N3A
pair_coeff    2   14 lj/cut/coul/long     0.067970     3.422718  # CR CZA
pair_coeff    2   15 lj/cut/coul/long     0.109087     3.370460  # CR NZA
pair_coeff    3    3 lj/cut/coul/long     0.070000     3.550000  # CW CW
pair_coeff    3    4 lj/cut/coul/long     0.067970     3.524911  # CW C1
pair_coeff    3    5 lj/cut/coul/long     0.045826     2.931041  # CW HCR
pair_coeff    3    6 lj/cut/coul/long     0.067970     3.524911  # CW C1A
pair_coeff    3    7 lj/cut/coul/long     0.045826     2.931041  # CW HCW
pair_coeff    3    8 lj/cut/coul/long     0.045826     2.979094  # CW H1
pair_coeff    3    9 lj/cut/coul/long     0.067970     3.524911  # CW C2
pair_coeff    3   10 lj/cut/coul/long     0.067970     3.524911  # CW CS
pair_coeff    3   11 lj/cut/coul/long     0.045826     2.979094  # CW HC
pair_coeff    3   12 lj/cut/coul/long     0.067970     3.524911  # CW CT
pair_coeff    3   13 lj/cut/coul/long     0.109087     3.396690  # CW N3A
pair_coeff    3   14 lj/cut/coul/long     0.067970     3.422718  # CW CZA
pair_coeff    3   15 lj/cut/coul/long     0.109087     3.370460  # CW NZA
pair_coeff    4    4 lj/cut/coul/long     0.065999     3.500000  # C1 C1
pair_coeff    4    5 lj/cut/coul/long     0.044497     2.910326  # C1 HCR
pair_coeff    4    6 lj/cut/coul/long     0.065999     3.500000  # C1 C1A
pair_coeff    4    7 lj/cut/coul/long     0.044497     2.910326  # C1 HCW
pair_coeff    4    8 lj/cut/coul/long     0.044497     2.958040  # C1 H1
pair_coeff    4    9 lj/cut/coul/long     0.065999     3.500000  # C1 C2
pair_coeff    4   10 lj/cut/coul/long     0.065999     3.500000  # C1 CS
pair_coeff    4   11 lj/cut/coul/long     0.044497     2.958040  # C1 HC
pair_coeff    4   12 lj/cut/coul/long     0.065999     3.500000  # C1 CT
pair_coeff    4   13 lj/cut/coul/long     0.105924     3.372684  # C1 N3A
pair_coeff    4   14 lj/cut/coul/long     0.065999     3.398529  # C1 CZA
pair_coeff    4   15 lj/cut/coul/long     0.105924     3.346640  # C1 NZA
pair_coeff    5    5 lj/cut/coul/long     0.030000     2.420000  # HCR HCR
pair_coeff    5    6 lj/cut/coul/long     0.044497     2.910326  # HCR C1A
pair_coeff    5    7 lj/cut/coul/long     0.030000     2.420000  # HCR HCW
pair_coeff    5    8 lj/cut/coul/long     0.030000     2.459675  # HCR H1
pair_coeff    5    9 lj/cut/coul/long     0.044497     2.910326  # HCR C2
pair_coeff    5   10 lj/cut/coul/long     0.044497     2.910326  # HCR CS
pair_coeff    5   11 lj/cut/coul/long     0.030000     2.459675  # HCR HC
pair_coeff    5   12 lj/cut/coul/long     0.044497     2.910326  # HCR CT
pair_coeff    5   13 lj/cut/coul/long     0.071414     2.804461  # HCR N3A
pair_coeff    5   14 lj/cut/coul/long     0.044497     2.825951  # HCR CZA
pair_coeff    5   15 lj/cut/coul/long     0.071414     2.782804  # HCR NZA
pair_coeff    6    6 lj/cut/coul/long     0.065999     3.500000  # C1A C1A
pair_coeff    6    7 lj/cut/coul/long     0.044497     2.910326  # C1A HCW
pair_coeff    6    8 lj/cut/coul/long     0.044497     2.958040  # C1A H1
pair_coeff    6    9 lj/cut/coul/long     0.065999     3.500000  # C1A C2
pair_coeff    6   10 lj/cut/coul/long     0.065999     3.500000  # C1A CS
pair_coeff    6   11 lj/cut/coul/long     0.044497     2.958040  # C1A HC
pair_coeff    6   12 lj/cut/coul/long     0.065999     3.500000  # C1A CT
pair_coeff    6   13 lj/cut/coul/long     0.105924     3.372684  # C1A N3A
pair_coeff    6   14 lj/cut/coul/long     0.065999     3.398529  # C1A CZA
pair_coeff    6   15 lj/cut/coul/long     0.105924     3.346640  # C1A NZA
pair_coeff    7    7 lj/cut/coul/long     0.030000     2.420000  # HCW HCW
pair_coeff    7    8 lj/cut/coul/long     0.030000     2.459675  # HCW H1
pair_coeff    7    9 lj/cut/coul/long     0.044497     2.910326  # HCW C2
pair_coeff    7   10 lj/cut/coul/long     0.044497     2.910326  # HCW CS
pair_coeff    7   11 lj/cut/coul/long     0.030000     2.459675  # HCW HC
pair_coeff    7   12 lj/cut/coul/long     0.044497     2.910326  # HCW CT
pair_coeff    7   13 lj/cut/coul/long     0.071414     2.804461  # HCW N3A
pair_coeff    7   14 lj/cut/coul/long     0.044497     2.825951  # HCW CZA
pair_coeff    7   15 lj/cut/coul/long     0.071414     2.782804  # HCW NZA
pair_coeff    8    8 lj/cut/coul/long     0.030000     2.500000  # H1 H1
pair_coeff    8    9 lj/cut/coul/long     0.044497     2.958040  # H1 C2
pair_coeff    8   10 lj/cut/coul/long     0.044497     2.958040  # H1 CS
pair_coeff    8   11 lj/cut/coul/long     0.030000     2.500000  # H1 HC
pair_coeff    8   12 lj/cut/coul/long     0.044497     2.958040  # H1 CT
pair_coeff    8   13 lj/cut/coul/long     0.071414     2.850439  # H1 N3A
pair_coeff    8   14 lj/cut/coul/long     0.044497     2.872281  # H1 CZA
pair_coeff    8   15 lj/cut/coul/long     0.071414     2.828427  # H1 NZA
pair_coeff    9    9 lj/cut/coul/long     0.065999     3.500000  # C2 C2
pair_coeff    9   10 lj/cut/coul/long     0.065999     3.500000  # C2 CS
pair_coeff    9   11 lj/cut/coul/long     0.044497     2.958040  # C2 HC
pair_coeff    9   12 lj/cut/coul/long     0.065999     3.500000  # C2 CT
pair_coeff    9   13 lj/cut/coul/long     0.105924     3.372684  # C2 N3A
pair_coeff    9   14 lj/cut/coul/long     0.065999     3.398529  # C2 CZA
pair_coeff    9   15 lj/cut/coul/long     0.105924     3.346640  # C2 NZA
pair_coeff   10   10 lj/cut/coul/long     0.065999     3.500000  # CS CS
pair_coeff   10   11 lj/cut/coul/long     0.044497     2.958040  # CS HC
pair_coeff   10   12 lj/cut/coul/long     0.065999     3.500000  # CS CT
pair_coeff   10   13 lj/cut/coul/long     0.105924     3.372684  # CS N3A
pair_coeff   10   14 lj/cut/coul/long     0.065999     3.398529  # CS CZA
pair_coeff   10   15 lj/cut/coul/long     0.105924     3.346640  # CS NZA
pair_coeff   11   11 lj/cut/coul/long     0.030000     2.500000  # HC HC
pair_coeff   11   12 lj/cut/coul/long     0.044497     2.958040  # HC CT
pair_coeff   11   13 lj/cut/coul/long     0.071414     2.850439  # HC N3A
pair_coeff   11   14 lj/cut/coul/long     0.044497     2.872281  # HC CZA
pair_coeff   11   15 lj/cut/coul/long     0.071414     2.828427  # HC NZA
pair_coeff   12   12 lj/cut/coul/long     0.065999     3.500000  # CT CT
pair_coeff   12   13 lj/cut/coul/long     0.105924     3.372684  # CT N3A
pair_coeff   12   14 lj/cut/coul/long     0.065999     3.398529  # CT CZA
pair_coeff   12   15 lj/cut/coul/long     0.105924     3.346640  # CT NZA
pair_coeff   13   13 lj/cut/coul/long     0.170000     3.250000  # N3A N3A
pair_coeff   13   14 lj/cut/coul/long     0.105924     3.274905  # N3A CZA
pair_coeff   13   15 lj/cut/coul/long     0.170000     3.224903  # N3A NZA
pair_coeff   14   14 lj/cut/coul/long     0.065999     3.300000  # CZA CZA
pair_coeff   14   15 lj/cut/coul/long     0.105924     3.249615  # CZA NZA
pair_coeff   15   15 lj/cut/coul/long     0.170000     3.200000  # NZA NZA
