# interactions involving Drude particles
pair_coeff    *   9* coul/long/cs
# Thole dipole-dipole damping if more than 1 Drude per molecule
pair_coeff    1    1 thole   2.177
pair_coeff    1    2 thole   1.902
pair_coeff    1    4 thole   2.079
pair_coeff    1    7 thole   1.923
pair_coeff    1    8 thole   1.578
pair_coeff    1    9 thole   2.177
pair_coeff    1   10 thole   1.902
pair_coeff    1   11 thole   2.079
pair_coeff    1   12 thole   1.923
pair_coeff    1   13 thole   1.578
pair_coeff    2    2 thole   1.662
pair_coeff    2    4 thole   1.816
pair_coeff    2    7 thole   1.680
pair_coeff    2    8 thole   1.379
pair_coeff    2    9 thole   1.902
pair_coeff    2   10 thole   1.662
pair_coeff    2   11 thole   1.816
pair_coeff    2   12 thole   1.680
pair_coeff    2   13 thole   1.379
pair_coeff    4    4 thole   1.985
pair_coeff    4    7 thole   1.836
pair_coeff    4    8 thole   1.507
pair_coeff    4    9 thole   2.079
pair_coeff    4   10 thole   1.816
pair_coeff    4   11 thole   1.985
pair_coeff    4   12 thole   1.836
pair_coeff    4   13 thole   1.507
pair_coeff    7    7 thole   1.698
pair_coeff    7    8 thole   1.394
pair_coeff    7    9 thole   1.923
pair_coeff    7   10 thole   1.680
pair_coeff    7   11 thole   1.836
pair_coeff    7   12 thole   1.698
pair_coeff    7   13 thole   1.394
pair_coeff    8    8 thole   1.144
pair_coeff    8    9 thole   1.578
pair_coeff    8   10 thole   1.379
pair_coeff    8   11 thole   1.507
pair_coeff    8   12 thole   1.394
pair_coeff    8   13 thole   1.144
pair_coeff    9    9 thole   2.177
pair_coeff    9   10 thole   1.902
pair_coeff    9   11 thole   2.079
pair_coeff    9   12 thole   1.923
pair_coeff    9   13 thole   1.578
pair_coeff   10   10 thole   1.662
pair_coeff   10   11 thole   1.816
pair_coeff   10   12 thole   1.680
pair_coeff   10   13 thole   1.379
pair_coeff   11   11 thole   1.985
pair_coeff   11   12 thole   1.836
pair_coeff   11   13 thole   1.507
pair_coeff   12   12 thole   1.698
pair_coeff   12   13 thole   1.394
pair_coeff   13   13 thole   1.144
